; PUSH 0x01 PUSH cw_2 SWAP1 DUP2 MUL => PUSH cw_2 DUP1
(set-option :produce-proofs true)
; 
(set-info :status unknown)
(declare-fun storage_t ((_ BitVec 256) Int (_ BitVec 256)) (_ BitVec 256))
(declare-fun w_2 () (_ BitVec 256))
(declare-fun storage_s ((_ BitVec 256) Int (_ BitVec 256)) (_ BitVec 256))
(declare-fun exc_halt_t (Int) Bool)
(declare-fun exc_halt_s (Int) Bool)
(declare-fun stack_t ((_ BitVec 256) Int (_ BitVec 6)) (_ BitVec 256))
(declare-fun stack_s ((_ BitVec 256) Int (_ BitVec 6)) (_ BitVec 256))
(declare-fun sc_t (Int) (_ BitVec 6))
(declare-fun sc_s (Int) (_ BitVec 6))
(declare-fun used_gas_t ((_ BitVec 256) Int) Int)
(declare-fun used_gas_s ((_ BitVec 256) Int) Int)
(assert
 (let (($x9240 (forall ((w (_ BitVec 256)) )(let ((?x5939 (storage_t w_2 2 w)))
 (let ((?x7272 (storage_s w_2 5 w)))
 (= ?x7272 ?x5939))))
 ))
 (let (($x5252 (exc_halt_t 2)))
 (let (($x3979 (exc_halt_s 5)))
 (let (($x4415 (= $x3979 $x5252)))
 (let (($x3327 (forall ((n (_ BitVec 6)) )(let ((?x4935 (stack_t w_2 2 n)))
 (let ((?x9026 (stack_s w_2 5 n)))
 (let (($x3512 (= ?x9026 ?x4935)))
 (let ((?x2714 (sc_t 2)))
 (let (($x1985 (bvsle ?x2714 n)))
 (or $x1985 $x3512)))))))
 ))
 (let ((?x2714 (sc_t 2)))
 (let ((?x805 (sc_s 5)))
 (let (($x2309 (= ?x805 ?x2714)))
 (let ((?x3375 (used_gas_t w_2 0)))
 (let ((?x7985 (used_gas_s w_2 0)))
 (let (($x8070 (= ?x7985 ?x3375)))
 (let (($x2742 (forall ((w (_ BitVec 256)) )(let ((?x7950 (storage_t w_2 0 w)))
 (let ((?x3668 (storage_s w_2 0 w)))
 (= ?x3668 ?x7950))))
 ))
 (let (($x56 (exc_halt_t 0)))
 (let (($x57 (exc_halt_s 0)))
 (let (($x58 (= $x57 $x56)))
 (let (($x8065 (forall ((n (_ BitVec 6)) )(let ((?x63 (sc_t 0)))
 (let (($x5025 (bvsle ?x63 n)))
 (let ((?x1033 (stack_t w_2 0 n)))
 (let ((?x4753 (stack_s w_2 0 n)))
 (let (($x1432 (= ?x4753 ?x1033)))
 (or $x1432 $x5025)))))))
 ))
 (let ((?x63 (sc_t 0)))
 (let ((?x72 (sc_s 0)))
 (let (($x73 (= ?x72 ?x63)))
 (let (($x11099 (not (= ((_ extract 6 6) (bvadd (_ bv1 7) (concat (_ bv0 1) (sc_t 1)))) (_ bv0 1)))))
 (let (($x10015 (not (bvsle (_ bv0 6) (bvadd (_ bv63 6) (sc_t 1))))))
 (let (($x3120 (exc_halt_t 1)))
 (let (($x3163 (forall ((w (_ BitVec 256)) )(let ((?x4667 (storage_t w_2 1 w)))
 (let ((?x5939 (storage_t w_2 2 w)))
 (= ?x5939 ?x4667))))
 ))
 (let (($x2240 (forall ((n (_ BitVec 6)) )(let ((?x6052 (sc_t 1)))
 (let ((?x5428 (bvadd (_ bv63 6) ?x6052)))
 (let (($x1444 (bvsle ?x5428 n)))
 (or (= (stack_t w_2 2 n) (stack_t w_2 1 n)) $x1444)))))
 ))
 (let (($x2185 (= ?x2714 (bvadd (_ bv1 6) (sc_t 1)))))
 (let ((?x6052 (sc_t 1)))
 (let ((?x5428 (bvadd (_ bv63 6) ?x6052)))
 (let ((?x1773 (stack_t w_2 1 ?x5428)))
 (let (($x4387 (= $x3120 (or $x56 (not (= ((_ extract 6 6) (bvadd (_ bv1 7) (concat (_ bv0 1) ?x63))) (_ bv0 1)))))))
 (let (($x97 (forall ((w (_ BitVec 256)) )(let ((?x7950 (storage_t w_2 0 w)))
 (let ((?x4667 (storage_t w_2 1 w)))
 (= ?x4667 ?x7950))))
 ))
 (let (($x4219 (forall ((n (_ BitVec 6)) )(let ((?x63 (sc_t 0)))
 (let (($x5025 (bvsle ?x63 n)))
 (or $x5025 (= (stack_t w_2 1 n) (stack_t w_2 0 n))))))
 ))
 (let (($x4139 (= ?x6052 (bvadd (_ bv1 6) ?x63))))
 (let (($x1289 (= $x3979 (or (exc_halt_s 4) (not (bvsle (_ bv0 6) (bvadd (_ bv62 6) (sc_s 4))))))))
 (let (($x7813 (forall ((w (_ BitVec 256)) )(let ((?x9595 (storage_s w_2 4 w)))
 (let ((?x7272 (storage_s w_2 5 w)))
 (= ?x7272 ?x9595))))
 ))
 (let (($x9425 (forall ((n (_ BitVec 6)) )(let ((?x4305 (sc_s 4)))
 (let ((?x5391 (bvadd (_ bv62 6) ?x4305)))
 (let (($x5921 (bvsle ?x5391 n)))
 (or $x5921 (= (stack_s w_2 5 n) (stack_s w_2 4 n)))))))
 ))
 (let ((?x4305 (sc_s 4)))
 (let ((?x1110 (bvadd (_ bv63 6) ?x4305)))
 (let (($x3594 (= ?x805 ?x1110)))
 (let ((?x1695 (stack_s w_2 4 ?x1110)))
 (let (($x5883 (= (stack_s w_2 5 (bvadd (_ bv63 6) ?x805)) (bvmul (stack_s w_2 4 (bvadd (_ bv62 6) ?x4305)) ?x1695))))
 (let (($x5075 (not (bvsle (_ bv0 6) (bvadd (_ bv62 6) (sc_s 3))))))
 (let (($x3194 (not (= ((_ extract 6 6) (bvadd (_ bv1 7) (concat (_ bv0 1) (sc_s 3)))) (_ bv0 1)))))
 (let (($x292 (exc_halt_s 3)))
 (let (($x7172 (exc_halt_s 4)))
 (let (($x10709 (= $x7172 (or $x292 $x3194 $x5075))))
 (let (($x5202 (forall ((w (_ BitVec 256)) )(let ((?x9793 (storage_s w_2 3 w)))
 (let ((?x9595 (storage_s w_2 4 w)))
 (= ?x9595 ?x9793))))
 ))
 (let (($x3151 (forall ((n (_ BitVec 6)) )(let ((?x275 (sc_s 3)))
 (let ((?x7283 (bvadd (_ bv62 6) ?x275)))
 (let (($x49 (bvsle ?x7283 n)))
 (or $x49 (= (stack_s w_2 4 n) (stack_s w_2 3 n)))))))
 ))
 (let (($x8427 (= ?x4305 (bvadd (_ bv1 6) (sc_s 3)))))
 (let ((?x275 (sc_s 3)))
 (let ((?x7071 (bvadd (_ bv63 6) ?x275)))
 (let ((?x5638 (stack_s w_2 3 ?x7071)))
 (let ((?x7283 (bvadd (_ bv62 6) ?x275)))
 (let ((?x7799 (stack_s w_2 3 ?x7283)))
 (let (($x2572 (= $x292 (or (exc_halt_s 2) (not (bvsle (_ bv0 6) (bvadd (_ bv62 6) (sc_s 2))))))))
 (let (($x1410 (forall ((w (_ BitVec 256)) )(let ((?x15 (storage_s w_2 2 w)))
 (let ((?x9793 (storage_s w_2 3 w)))
 (= ?x9793 ?x15))))
 ))
 (let (($x5673 (forall ((n (_ BitVec 6)) )(let ((?x218 (sc_s 2)))
 (let ((?x7367 (bvadd (_ bv62 6) ?x218)))
 (let (($x2513 (bvsle ?x7367 n)))
 (or $x2513 (= (stack_s w_2 3 n) (stack_s w_2 2 n)))))))
 ))
 (let ((?x218 (sc_s 2)))
 (let (($x5891 (= ?x275 ?x218)))
 (let (($x2265 (not (= ((_ extract 6 6) (bvadd (_ bv1 7) (concat (_ bv0 1) (sc_s 1)))) (_ bv0 1)))))
 (let (($x189 (exc_halt_s 1)))
 (let (($x247 (exc_halt_s 2)))
 (let (($x5474 (= $x247 (or $x189 $x2265))))
 (let (($x7855 (forall ((w (_ BitVec 256)) )(let ((?x1779 (storage_s w_2 1 w)))
 (let ((?x15 (storage_s w_2 2 w)))
 (= ?x15 ?x1779))))
 ))
 (let (($x3145 (forall ((n (_ BitVec 6)) )(let ((?x154 (sc_s 1)))
 (let (($x4051 (bvsle ?x154 n)))
 (or $x4051 (= (stack_s w_2 2 n) (stack_s w_2 1 n))))))
 ))
 (let (($x1555 (= ?x218 (bvadd (_ bv1 6) (sc_s 1)))))
 (let (($x1654 (= $x189 (or $x57 (not (= ((_ extract 6 6) (bvadd (_ bv1 7) (concat (_ bv0 1) ?x72))) (_ bv0 1)))))))
 (let (($x1780 (forall ((w (_ BitVec 256)) )(let ((?x3668 (storage_s w_2 0 w)))
 (let ((?x1779 (storage_s w_2 1 w)))
 (= ?x1779 ?x3668))))
 ))
 (let (($x6343 (forall ((n (_ BitVec 6)) )(let ((?x72 (sc_s 0)))
 (let (($x3386 (bvsle ?x72 n)))
 (or (= (stack_s w_2 1 n) (stack_s w_2 0 n)) $x3386))))
 ))
 (let ((?x154 (sc_s 1)))
 (let (($x7749 (= ?x154 (bvadd (_ bv1 6) ?x72))))
 (let (($x10296 (forall ((w (_ BitVec 256)) )(let ((?x3668 (storage_s w_2 0 w)))
 (= ?x3668 (_ bv0 256))))
 ))
 (let (($x4086 (= ?x7985 0)))
 (let (($x5167 (not $x57)))
 (let (($x9817 (= ?x72 (_ bv0 6))))
 (and $x9817 $x5167 $x4086 $x10296 (= (stack_s w_2 1 ?x72) (_ bv1 256)) (= (used_gas_s w_2 1) (+ 3 ?x7985)) $x7749 $x6343 $x1780 $x1654 (= (stack_s w_2 2 ?x154) w_2) (= (used_gas_s w_2 2) (+ 3 (used_gas_s w_2 1))) $x1555 $x3145 $x7855 $x5474 (= ?x5638 (stack_s w_2 2 (bvadd (_ bv62 6) ?x218))) (= ?x7799 (stack_s w_2 2 (bvadd (_ bv63 6) ?x218))) (= (used_gas_s w_2 3) (+ 3 (used_gas_s w_2 2))) $x5891 $x5673 $x1410 $x2572 (= ?x1695 ?x7799) (= (stack_s w_2 4 ?x7283) ?x7799) (= (stack_s w_2 4 ?x7071) ?x5638) (= (used_gas_s w_2 4) (+ 3 (used_gas_s w_2 3))) $x8427 $x3151 $x5202 $x10709 $x5883 (= (used_gas_s w_2 5) (+ 5 (used_gas_s w_2 4))) $x3594 $x9425 $x7813 $x1289 (= (stack_t w_2 1 ?x63) w_2) (= (used_gas_t w_2 1) (+ 3 ?x3375)) $x4139 $x4219 $x97 $x4387 (= (stack_t w_2 2 (bvadd (_ bv63 6) ?x2714)) ?x1773) (= (stack_t w_2 2 ?x5428) ?x1773) (= (used_gas_t w_2 2) (+ 3 (used_gas_t w_2 1))) $x2185 $x2240 $x3163 (= $x5252 (or $x3120 $x10015 $x11099)) $x73 $x8065 $x58 $x2742 $x8070 (not (and $x2309 $x3327 $x4415 $x9240))))))))))))))))))))))))))))))))))))))))))))))))))))))))))))))))))))))))))))))
(check-sat)
(get-proof)
